Translating instance to solver...

GLPSOL--GLPK LP/MIP Solver 5.0
Parameter(s) specified in the command line:
 --tmlim 28800 --mipgap 0.0 --write /tmp/tmp8_gcxe71.glpk.raw --wglp /tmp/tmpptkln59d.glpk.glp
 --cpxlp /tmp/tmpy4e9ukjd.pyomo.lp
Reading problem data from '/tmp/tmpy4e9ukjd.pyomo.lp'...
/tmp/tmpy4e9ukjd.pyomo.lp:77585: warning: lower bound of variable 'x2' redefined
/tmp/tmpy4e9ukjd.pyomo.lp:77585: warning: upper bound of variable 'x2' redefined
12726 rows, 7642 columns, 31692 non-zeros
7642 integer variables, 7620 of which are binary
85205 lines were read
Writing problem data to '/tmp/tmpptkln59d.glpk.glp'...
59610 lines were written
GLPK Integer Optimizer 5.0
12726 rows, 7642 columns, 31692 non-zeros
7642 integer variables, 7620 of which are binary
Preprocessing...
40 hidden packing inequaliti(es) were detected
1471 hidden covering inequaliti(es) were detected
95 constraint coefficient(s) were reduced
6581 rows, 3094 columns, 16745 non-zeros
3094 integer variables, 3074 of which are binary
Scaling...
 A: min|aij| =  1.000e+00  max|aij| =  2.100e+01  ratio =  2.100e+01
GM: min|aij| =  4.733e-01  max|aij| =  2.113e+00  ratio =  4.463e+00
EQ: min|aij| =  2.301e-01  max|aij| =  1.000e+00  ratio =  4.347e+00
2N: min|aij| =  2.500e-01  max|aij| =  1.375e+00  ratio =  5.500e+00
Constructing initial basis...
Size of triangular part is 6581
Solving LP relaxation...
GLPK Simplex Optimizer 5.0
6581 rows, 3094 columns, 16745 non-zeros
      0: obj =   7.558910000e-01 inf =   4.662e+01 (67)
    305: obj =   4.252991437e+00 inf =   4.108e-15 (0) 1
*   583: obj =   3.238027667e+00 inf =   7.153e-16 (0) 2
OPTIMAL LP SOLUTION FOUND
Integer optimization begins...
Long-step dual simplex will be used
+   583: mip =     not found yet >=              -inf        (1; 0)
+  5409: mip =     not found yet >=   3.633529333e+00        (130; 12)
+  9747: >>>>>   4.391237000e+00 >=   3.635346000e+00  17.2% (274; 44)
+ 17091: mip =   4.391237000e+00 >=   3.636718467e+00  17.2% (321; 247)
+ 22778: mip =   4.391237000e+00 >=   3.691596000e+00  15.9% (385; 290)
+ 27862: mip =   4.391237000e+00 >=   3.779455000e+00  13.9% (464; 336)
+ 34117: mip =   4.391237000e+00 >=   3.779455000e+00  13.9% (572; 378)
+ 42292: mip =   4.391237000e+00 >=   3.779455000e+00  13.9% (699; 416)
+ 47605: mip =   4.391237000e+00 >=   3.791107990e+00  13.7% (810; 435)
+ 54784: mip =   4.391237000e+00 >=   3.791107990e+00  13.7% (988; 466)
+ 62996: mip =   4.391237000e+00 >=   3.791107990e+00  13.7% (1154; 502)
+ 71760: mip =   4.391237000e+00 >=   3.791107990e+00  13.7% (1327; 544)
+ 80538: mip =   4.391237000e+00 >=   3.794021238e+00  13.6% (1505; 583)
+ 81090: >>>>>   4.085346000e+00 >=   3.794021238e+00   7.1% (1520; 586)
Time used: 60.0 secs.  Memory used: 38.4 Mb.
+ 89083: mip =   4.085346000e+00 >=   3.808587476e+00   6.8% (415; 2935)
+ 95202: mip =   4.085346000e+00 >=   3.881418667e+00   5.0% (383; 3403)
+103124: mip =   4.085346000e+00 >=   3.941237000e+00   3.5% (375; 3818)
+112478: mip =   4.085346000e+00 >=   3.941237000e+00   3.5% (372; 4224)
+119338: mip =   4.085346000e+00 >=   3.941237000e+00   3.5% (369; 4433)
+125803: mip =   4.085346000e+00 >=   3.941237000e+00   3.5% (471; 4574)
+133743: mip =   4.085346000e+00 >=   3.941237000e+00   3.5% (476; 4758)
+140562: mip =   4.085346000e+00 >=   3.941237000e+00   3.5% (461; 5009)
+147064: mip =   4.085346000e+00 >=   3.941237000e+00   3.5% (448; 5301)
+153413: mip =   4.085346000e+00 >=   3.941237000e+00   3.5% (461; 5518)
+160243: mip =   4.085346000e+00 >=   3.947359449e+00   3.4% (431; 5773)
+165971: mip =   4.085346000e+00 >=   3.982308429e+00   2.5% (245; 6567)
Time used: 120.0 secs.  Memory used: 38.4 Mb.
+169743: mip =   4.085346000e+00 >=     tree is empty   0.0% (0; 7803)
INTEGER OPTIMAL SOLUTION FOUND
Time used:   122.3 secs
Memory used: 40.0 Mb (41957176 bytes)
Writing MIP solution to '/tmp/tmp8_gcxe71.glpk.raw'...
20377 lines were written

Time in solver (for this epsilon): 122.32190608978271 s
Elapsed time (for this epsilon): 122.6090760231018 s


Total elapsed time since execution of first epsilon: 1546.3890597820282 s

Results:

E = 4.085346 mA
C = 100.0 points
C ~= 40.0 km^2

Minimum Epsilon for this instance = 10
Maximum Epsilon for this instance = 100

Current Epsilon = 100


Instance Epsilon Preprocessing Time: 0.0022029876708984375 s


Updated solution vectors:
sol_E = [-0.611782,-1.061782,-1.061782,-1.061782,-1.061782,-1.511782,-1.511782,-2.267673,-2.573564,-4.085346]
sol_C = [11.0,49.0,31.0,40.0,50.0,70.0,72.0,82.0,91.0,100.0]
sol_eps = [10,20,30,40,50,60,70,80,90,100]
sol_gap = [0.0,0.0,0.0,0.0,0.0,0.0,0.0,0.0,0.0,0.0]
